\ Model linar_parallel_problem
\ LP format - for model browsing. Use MPS format to capture full model detail.
Minimize
  C_TOTAL
Subject To
 机器1的时间: - 5 X1[1][1] - 5 X1[1][2] - 5 X1[1][3] - 5 X1[1][4]
   - 5 X1[1][5] - 5 X1[1][6] - 5 X1[2][1] - 5 X1[2][2] - 5 X1[2][3]
   - 5 X1[2][4] - 5 X1[2][5] - 5 X1[2][6] - 5 X1[3][1] - 5 X1[3][2]
   - 5 X1[3][3] - 5 X1[3][4] - 5 X1[3][5] - 5 X1[3][6] - 5 X1[4][1]
   - 5 X1[4][2] - 5 X1[4][3] - 5 X1[4][4] - 5 X1[4][5] - 5 X1[4][6]
   - Y1[1][1] - 1.5 Y1[1][2] - Y1[1][3] - 1.5 Y1[1][4] - Y1[1][5]
   - 1.5 Y1[1][6] - Y1[2][1] - 1.5 Y1[2][2] - Y1[2][3] - 1.5 Y1[2][4]
   - Y1[2][5] - 1.5 Y1[2][6] - Y1[3][1] - 1.5 Y1[3][2] - Y1[3][3]
   - 1.5 Y1[3][4] - Y1[3][5] - 1.5 Y1[3][6] - Y1[4][1] - 1.5 Y1[4][2]
   - Y1[4][3] - 1.5 Y1[4][4] - Y1[4][5] - 1.5 Y1[4][6] + C[1] = 2.5
 机器2的时间: - 5 X2[1][1] - 5 X2[1][2] - 5 X2[1][3] - 5 X2[1][4]
   - 5 X2[1][5] - 5 X2[1][6] - 5 X2[2][1] - 5 X2[2][2] - 5 X2[2][3]
   - 5 X2[2][4] - 5 X2[2][5] - 5 X2[2][6] - 5 X2[3][1] - 5 X2[3][2]
   - 5 X2[3][3] - 5 X2[3][4] - 5 X2[3][5] - 5 X2[3][6] - 5 X2[4][1]
   - 5 X2[4][2] - 5 X2[4][3] - 5 X2[4][4] - 5 X2[4][5] - 5 X2[4][6]
   - Y2[1][1] - 1.5 Y2[1][2] - Y2[1][3] - 1.5 Y2[1][4] - Y2[1][5]
   - 1.5 Y2[1][6] - Y2[2][1] - 1.5 Y2[2][2] - Y2[2][3] - 1.5 Y2[2][4]
   - Y2[2][5] - 1.5 Y2[2][6] - Y2[3][1] - 1.5 Y2[3][2] - Y2[3][3]
   - 1.5 Y2[3][4] - Y2[3][5] - 1.5 Y2[3][6] - Y2[4][1] - 1.5 Y2[4][2]
   - Y2[4][3] - 1.5 Y2[4][4] - Y2[4][5] - 1.5 Y2[4][6] + C[2] = 2.5
 机器3的时间: - 5 X3[1] - 5 X3[2] - 5 X3[3] - 5 X3[4] - 5 X3[5]
   - 5 X3[6] - Y3[1] - 1.5 Y3[2] - Y3[3] - 1.5 Y3[4] - Y3[5] - 1.5 Y3[6]
   + C[3] = 2.5
 机器4的时间: - 5 X4[1] - 5 X4[2] - 5 X4[3] - 5 X4[4] - 5 X4[5]
   - 5 X4[6] - Y4[1] - 1.5 Y4[2] - Y4[3] - 1.5 Y4[4] - Y4[5] - 1.5 Y4[6]
   + C[4] = 2.5
 第1种车的1方向需满足：: X1[1][1] + X2[1][1] + X3[1] + X4[1]
   >= 10
 第2种车的1方向需满足：: X1[1][2] + X2[1][2] + X3[2] + X4[2]
   >= 11
 第3种车的1方向需满足：: X1[1][3] + X2[1][3] + X3[3] + X4[3]
   >= 26
 第4种车的1方向需满足：: X1[1][4] + X2[1][4] + X3[4] + X4[4]
   >= 18
 第5种车的1方向需满足：: X1[1][5] + X2[1][5] + X3[5] + X4[5]
   >= 18
 第6种车的1方向需满足：: X1[1][6] + X2[1][6] + X3[6] + X4[6]
   >= 25
 第1种车的2方向需满足：: X1[2][1] + X2[2][1] + X3[1] + X4[1]
   >= 15
 第2种车的2方向需满足：: X1[2][2] + X2[2][2] + X3[2] + X4[2]
   >= 17
 第3种车的2方向需满足：: X1[2][3] + X2[2][3] + X3[3] + X4[3]
   >= 22
 第4种车的2方向需满足：: X1[2][4] + X2[2][4] + X3[4] + X4[4]
   >= 9
 第5种车的2方向需满足：: X1[2][5] + X2[2][5] + X3[5] + X4[5]
   >= 14
 第6种车的2方向需满足：: X1[2][6] + X2[2][6] + X3[6] + X4[6]
   >= 19
 第1种车的3方向需满足：: X1[3][1] + X2[3][1] + X3[1] + X4[1]
   >= 12
 第2种车的3方向需满足：: X1[3][2] + X2[3][2] + X3[2] + X4[2]
   >= 17
 第3种车的3方向需满足：: X1[3][3] + X2[3][3] + X3[3] + X4[3]
   >= 15
 第4种车的3方向需满足：: X1[3][4] + X2[3][4] + X3[4] + X4[4]
   >= 11
 第5种车的3方向需满足：: X1[3][5] + X2[3][5] + X3[5] + X4[5]
   >= 28
 第6种车的3方向需满足：: X1[3][6] + X2[3][6] + X3[6] + X4[6]
   >= 6
 第1种车的4方向需满足：: X1[4][1] + X2[4][1] + X3[1] + X4[1]
   >= 20
 第2种车的4方向需满足：: X1[4][2] + X2[4][2] + X3[2] + X4[2]
   >= 22
 第3种车的4方向需满足：: X1[4][3] + X2[4][3] + X3[3] + X4[3]
   >= 21
 第4种车的4方向需满足：: X1[4][4] + X2[4][4] + X3[4] + X4[4]
   >= 24
 第5种车的4方向需满足：: X1[4][5] + X2[4][5] + X3[5] + X4[5]
   >= 16
 第6种车的4方向需满足：: X1[4][6] + X2[4][6] + X3[6] + X4[6]
   >= 18
 机器1需要换1车1模方可生产：: X1[1][1] - 10000 Y1[1][1] <= 0
 机器1需要换2车1模方可生产：: X1[1][2] - 10000 Y1[1][2] <= 0
 机器1需要换3车1模方可生产：: X1[1][3] - 10000 Y1[1][3] <= 0
 机器1需要换4车1模方可生产：: X1[1][4] - 10000 Y1[1][4] <= 0
 机器1需要换5车1模方可生产：: X1[1][5] - 10000 Y1[1][5] <= 0
 机器1需要换6车1模方可生产：: X1[1][6] - 10000 Y1[1][6] <= 0
 机器1需要换1车2模方可生产：: X1[2][1] - 10000 Y1[2][1] <= 0
 机器1需要换2车2模方可生产：: X1[2][2] - 10000 Y1[2][2] <= 0
 机器1需要换3车2模方可生产：: X1[2][3] - 10000 Y1[2][3] <= 0
 机器1需要换4车2模方可生产：: X1[2][4] - 10000 Y1[2][4] <= 0
 机器1需要换5车2模方可生产：: X1[2][5] - 10000 Y1[2][5] <= 0
 机器1需要换6车2模方可生产：: X1[2][6] - 10000 Y1[2][6] <= 0
 机器1需要换1车3模方可生产：: X1[3][1] - 10000 Y1[3][1] <= 0
 机器1需要换2车3模方可生产：: X1[3][2] - 10000 Y1[3][2] <= 0
 机器1需要换3车3模方可生产：: X1[3][3] - 10000 Y1[3][3] <= 0
 机器1需要换4车3模方可生产：: X1[3][4] - 10000 Y1[3][4] <= 0
 机器1需要换5车3模方可生产：: X1[3][5] - 10000 Y1[3][5] <= 0
 机器1需要换6车3模方可生产：: X1[3][6] - 10000 Y1[3][6] <= 0
 机器1需要换1车4模方可生产：: X1[4][1] - 10000 Y1[4][1] <= 0
 机器1需要换2车4模方可生产：: X1[4][2] - 10000 Y1[4][2] <= 0
 机器1需要换3车4模方可生产：: X1[4][3] - 10000 Y1[4][3] <= 0
 机器1需要换4车4模方可生产：: X1[4][4] - 10000 Y1[4][4] <= 0
 机器1需要换5车4模方可生产：: X1[4][5] - 10000 Y1[4][5] <= 0
 机器1需要换6车4模方可生产：: X1[4][6] - 10000 Y1[4][6] <= 0
 机器2需要换1车1模方可生产：: X2[1][1] - 10000 Y2[1][1] <= 0
 机器2需要换2车1模方可生产：: X2[1][2] - 10000 Y2[1][2] <= 0
 机器2需要换3车1模方可生产：: X2[1][3] - 10000 Y2[1][3] <= 0
 机器2需要换4车1模方可生产：: X2[1][4] - 10000 Y2[1][4] <= 0
 机器2需要换5车1模方可生产：: X2[1][5] - 10000 Y2[1][5] <= 0
 机器2需要换6车1模方可生产：: X2[1][6] - 10000 Y2[1][6] <= 0
 机器2需要换1车2模方可生产：: X2[2][1] - 10000 Y2[2][1] <= 0
 机器2需要换2车2模方可生产：: X2[2][2] - 10000 Y2[2][2] <= 0
 机器2需要换3车2模方可生产：: X2[2][3] - 10000 Y2[2][3] <= 0
 机器2需要换4车2模方可生产：: X2[2][4] - 10000 Y2[2][4] <= 0
 机器2需要换5车2模方可生产：: X2[2][5] - 10000 Y2[2][5] <= 0
 机器2需要换6车2模方可生产：: X2[2][6] - 10000 Y2[2][6] <= 0
 机器2需要换1车3模方可生产：: X2[3][1] - 10000 Y2[3][1] <= 0
 机器2需要换2车3模方可生产：: X2[3][2] - 10000 Y2[3][2] <= 0
 机器2需要换3车3模方可生产：: X2[3][3] - 10000 Y2[3][3] <= 0
 机器2需要换4车3模方可生产：: X2[3][4] - 10000 Y2[3][4] <= 0
 机器2需要换5车3模方可生产：: X2[3][5] - 10000 Y2[3][5] <= 0
 机器2需要换6车3模方可生产：: X2[3][6] - 10000 Y2[3][6] <= 0
 机器2需要换1车4模方可生产：: X2[4][1] - 10000 Y2[4][1] <= 0
 机器2需要换2车4模方可生产：: X2[4][2] - 10000 Y2[4][2] <= 0
 机器2需要换3车4模方可生产：: X2[4][3] - 10000 Y2[4][3] <= 0
 机器2需要换4车4模方可生产：: X2[4][4] - 10000 Y2[4][4] <= 0
 机器2需要换5车4模方可生产：: X2[4][5] - 10000 Y2[4][5] <= 0
 机器2需要换6车4模方可生产：: X2[4][6] - 10000 Y2[4][6] <= 0
 机器3需要换1车的模具方可生产：: X3[1] - 10000 Y3[1] <= 0
 机器3需要换2车的模具方可生产：: X3[2] - 10000 Y3[2] <= 0
 机器3需要换3车的模具方可生产：: X3[3] - 10000 Y3[3] <= 0
 机器3需要换4车的模具方可生产：: X3[4] - 10000 Y3[4] <= 0
 机器3需要换5车的模具方可生产：: X3[5] - 10000 Y3[5] <= 0
 机器3需要换6车的模具方可生产：: X3[6] - 10000 Y3[6] <= 0
 机器4需要换1车的模具方可生产：: X4[1] - 10000 Y4[1] <= 0
 机器4需要换2车的模具方可生产：: X4[2] - 10000 Y4[2] <= 0
 机器4需要换3车的模具方可生产：: X4[3] - 10000 Y4[3] <= 0
 机器4需要换4车的模具方可生产：: X4[4] - 10000 Y4[4] <= 0
 机器4需要换5车的模具方可生产：: X4[5] - 10000 Y4[5] <= 0
 机器4需要换6车的模具方可生产：: X4[6] - 10000 Y4[6] <= 0
 此处为求极大值的第1个函数: C[1] - C_TOTAL <= 0
 此处为求极大值的第2个函数: C[2] - C_TOTAL <= 0
 此处为求极大值的第3个函数: C[3] - C_TOTAL <= 0
 此处为求极大值的第4个函数: C[4] - C_TOTAL <= 0
 此处为求极大值的第5个函数: C[1] - C_TOTAL - 10000 Z[1]
   >= -10000
 此处为求极大值的第6个函数: C[2] - C_TOTAL - 10000 Z[2]
   >= -10000
 此处为求极大值的第7个函数: C[3] - C_TOTAL - 10000 Z[3]
   >= -10000
 此处为求极大值的第8个函数: C[4] - C_TOTAL - 10000 Z[4]
   >= -10000
 此处为求极大值的第9个函数: Z[1] + Z[2] + Z[3] + Z[4] >= 1
Bounds
 X1[1][1] <= 10
 X1[1][2] <= 11
 X1[1][3] <= 26
 X1[1][4] <= 18
 X1[1][5] <= 18
 X1[1][6] <= 25
 X1[2][1] <= 15
 X1[2][2] <= 17
 X1[2][3] <= 22
 X1[2][4] <= 9
 X1[2][5] <= 14
 X1[2][6] <= 19
 X1[3][1] <= 12
 X1[3][2] <= 17
 X1[3][3] <= 15
 X1[3][4] <= 11
 X1[3][5] <= 28
 X1[3][6] <= 6
 X1[4][1] <= 20
 X1[4][2] <= 22
 X1[4][3] <= 21
 X1[4][4] <= 24
 X1[4][5] <= 16
 X1[4][6] <= 18
 X2[1][1] <= 10
 X2[1][2] <= 11
 X2[1][3] <= 26
 X2[1][4] <= 18
 X2[1][5] <= 18
 X2[1][6] <= 25
 X2[2][1] <= 15
 X2[2][2] <= 17
 X2[2][3] <= 22
 X2[2][4] <= 9
 X2[2][5] <= 14
 X2[2][6] <= 19
 X2[3][1] <= 12
 X2[3][2] <= 17
 X2[3][3] <= 15
 X2[3][4] <= 11
 X2[3][5] <= 28
 X2[3][6] <= 6
 X2[4][1] <= 20
 X2[4][2] <= 22
 X2[4][3] <= 21
 X2[4][4] <= 24
 X2[4][5] <= 16
 X2[4][6] <= 18
 X3[1] <= 20
 X3[2] <= 22
 X3[3] <= 26
 X3[4] <= 24
 X3[5] <= 28
 X3[6] <= 25
 X4[1] <= 20
 X4[2] <= 22
 X4[3] <= 26
 X4[4] <= 24
 X4[5] <= 28
 X4[6] <= 25
Binaries
 Y1[1][1] Y1[1][2] Y1[1][3] Y1[1][4] Y1[1][5] Y1[1][6] Y1[2][1] Y1[2][2]
 Y1[2][3] Y1[2][4] Y1[2][5] Y1[2][6] Y1[3][1] Y1[3][2] Y1[3][3] Y1[3][4]
 Y1[3][5] Y1[3][6] Y1[4][1] Y1[4][2] Y1[4][3] Y1[4][4] Y1[4][5] Y1[4][6]
 Y2[1][1] Y2[1][2] Y2[1][3] Y2[1][4] Y2[1][5] Y2[1][6] Y2[2][1] Y2[2][2]
 Y2[2][3] Y2[2][4] Y2[2][5] Y2[2][6] Y2[3][1] Y2[3][2] Y2[3][3] Y2[3][4]
 Y2[3][5] Y2[3][6] Y2[4][1] Y2[4][2] Y2[4][3] Y2[4][4] Y2[4][5] Y2[4][6]
 Y3[1] Y3[2] Y3[3] Y3[4] Y3[5] Y3[6] Y4[1] Y4[2] Y4[3] Y4[4] Y4[5] Y4[6]
 Z[1] Z[2] Z[3] Z[4]
Generals
 X1[1][1] X1[1][2] X1[1][3] X1[1][4] X1[1][5] X1[1][6] X1[2][1] X1[2][2]
 X1[2][3] X1[2][4] X1[2][5] X1[2][6] X1[3][1] X1[3][2] X1[3][3] X1[3][4]
 X1[3][5] X1[3][6] X1[4][1] X1[4][2] X1[4][3] X1[4][4] X1[4][5] X1[4][6]
 X2[1][1] X2[1][2] X2[1][3] X2[1][4] X2[1][5] X2[1][6] X2[2][1] X2[2][2]
 X2[2][3] X2[2][4] X2[2][5] X2[2][6] X2[3][1] X2[3][2] X2[3][3] X2[3][4]
 X2[3][5] X2[3][6] X2[4][1] X2[4][2] X2[4][3] X2[4][4] X2[4][5] X2[4][6]
 X3[1] X3[2] X3[3] X3[4] X3[5] X3[6] X4[1] X4[2] X4[3] X4[4] X4[5] X4[6]
End
